presolving:
(round 1, fast)       2048 del vars, 3144 del conss, 0 add conss, 586 chg bounds, 0 chg sides, 0 chg coeffs, 0 upgd conss, 0 impls, 0 clqs
(round 2, fast)       2891 del vars, 3144 del conss, 0 add conss, 586 chg bounds, 0 chg sides, 0 chg coeffs, 0 upgd conss, 0 impls, 0 clqs
   (0.1s) running MILP presolver
   (0.1s) MILP presolver found nothing
(round 3, exhaustive) 2891 del vars, 3144 del conss, 0 add conss, 586 chg bounds, 0 chg sides, 0 chg coeffs, 1502 upgd conss, 0 impls, 0 clqs
   (0.3s) probing: 51/281 (18.1%) - 0 fixings, 0 aggregations, 0 implications, 0 bound changes
   (0.3s) probing aborted: 50/50 successive totally useless probings
   (0.7s) symmetry computation started: requiring (bin +, int -, cont +), (fixed: bin -, int +, cont -)
   (0.7s) no symmetry present
presolving (4 rounds: 4 fast, 2 medium, 2 exhaustive):
 6707 deleted vars, 3423 deleted constraints, 0 added constraints, 586 tightened bounds, 0 added holes, 0 changed sides, 0 changed coefficients
 0 implications, 0 cliques
presolved problem has 281 variables (281 bin, 0 int, 0 impl, 0 cont) and 1502 constraints
      2 constraints of type <knapsack>
   1500 constraints of type <logicor>
transformed objective value is always integral (scale: 0.02)
Presolving Time: 0.80

 time | node  | left  |LP iter|LP it/n|mem/heur|mdpt |vars |cons |rows |cuts |sepa|confs|strbr|  dualbound   | primalbound  |  gap   | compl. 
p 0.9s|     1 |     0 |     0 |     - |   locks|   0 | 281 |1502 |1502 |   0 |  0 |   0 |   0 |-2.691234e+06 |-2.671943e+06 |   0.72%| unknown
  0.9s|     1 |     0 |   613 |     - |   100M |   0 | 281 |1502 |1502 |   0 |  0 |   0 |   0 |-2.688098e+06 |-2.671943e+06 |   0.60%| unknown
r 0.9s|     1 |     0 |   613 |     - |rounding|   0 | 281 |1502 |1502 |   0 |  0 |   0 |   0 |-2.688098e+06 |-2.677110e+06 |   0.41%| unknown
r 0.9s|     1 |     0 |   613 |     - |shifting|   0 | 281 |1502 |1502 |   0 |  0 |   0 |   0 |-2.688098e+06 |-2.677215e+06 |   0.41%| unknown
i 1.0s|     1 |     0 |   613 |     - |  oneopt|   0 | 281 |1502 |1502 |   0 |  0 |   0 |   0 |-2.688098e+06 |-2.686767e+06 |   0.05%| unknown
  1.0s|     1 |     0 |   639 |     - |   102M |   0 | 281 |1502 |1503 |   1 |  1 |   0 |   0 |-2.688092e+06 |-2.686767e+06 |   0.05%| unknown
  1.1s|     1 |     0 |   668 |     - |   103M |   0 | 281 |1502 |1504 |   2 |  2 |   0 |   0 |-2.688084e+06 |-2.686767e+06 |   0.05%| unknown
  1.1s|     1 |     0 |   715 |     - |   105M |   0 | 281 |1502 |1505 |   3 |  3 |   0 |   0 |-2.688073e+06 |-2.686767e+06 |   0.05%| unknown
  1.2s|     1 |     0 |   758 |     - |   106M |   0 | 281 |1502 |1506 |   4 |  4 |   0 |   0 |-2.688071e+06 |-2.686767e+06 |   0.05%| unknown
  1.2s|     1 |     0 |   796 |     - |   108M |   0 | 281 |1502 |1507 |   5 |  5 |   0 |   0 |-2.688069e+06 |-2.686767e+06 |   0.05%| unknown
  1.3s|     1 |     0 |   867 |     - |   109M |   0 | 281 |1502 |1508 |   6 |  6 |   0 |   0 |-2.688066e+06 |-2.686767e+06 |   0.05%| unknown
  1.3s|     1 |     0 |   881 |     - |   112M |   0 | 281 |1502 |1509 |   7 |  7 |   0 |   0 |-2.688065e+06 |-2.686767e+06 |   0.05%| unknown
  1.4s|     1 |     0 |   943 |     - |   114M |   0 | 281 |1502 |1510 |   8 |  8 |   0 |   0 |-2.688063e+06 |-2.686767e+06 |   0.05%| unknown
  1.4s|     1 |     0 |   979 |     - |   116M |   0 | 281 |1502 |1511 |   9 |  9 |   0 |   0 |-2.688062e+06 |-2.686767e+06 |   0.05%| unknown
  1.5s|     1 |     0 |  1049 |     - |   117M |   0 | 281 |1502 |1512 |  10 | 10 |   0 |   0 |-2.688059e+06 |-2.686767e+06 |   0.05%| unknown
 time | node  | left  |LP iter|LP it/n|mem/heur|mdpt |vars |cons |rows |cuts |sepa|confs|strbr|  dualbound   | primalbound  |  gap   | compl. 
  1.5s|     1 |     0 |  1076 |     - |   117M |   0 | 281 |1502 |1513 |  11 | 11 |   0 |   0 |-2.688058e+06 |-2.686767e+06 |   0.05%| unknown
  1.5s|     1 |     0 |  1091 |     - |   118M |   0 | 281 |1502 |1514 |  12 | 12 |   0 |   0 |-2.688058e+06 |-2.686767e+06 |   0.05%| unknown
  1.5s|     1 |     0 |  1107 |     - |   118M |   0 | 281 |1502 |1515 |  13 | 13 |   0 |   0 |-2.688057e+06 |-2.686767e+06 |   0.05%| unknown
  1.6s|     1 |     0 |  1124 |     - |   118M |   0 | 281 |1502 |1516 |  14 | 14 |   0 |   0 |-2.688057e+06 |-2.686767e+06 |   0.05%| unknown
  1.6s|     1 |     0 |  1146 |     - |   118M |   0 | 281 |1502 |1517 |  15 | 15 |   0 |   0 |-2.688056e+06 |-2.686767e+06 |   0.05%| unknown
  1.6s|     1 |     0 |  1160 |     - |   118M |   0 | 281 |1502 |1518 |  16 | 16 |   0 |   0 |-2.688056e+06 |-2.686767e+06 |   0.05%| unknown
  1.6s|     1 |     0 |  1210 |     - |   118M |   0 | 281 |1502 |1519 |  17 | 17 |   0 |   0 |-2.688055e+06 |-2.686767e+06 |   0.05%| unknown
  1.6s|     1 |     0 |  1228 |     - |   118M |   0 | 281 |1502 |1520 |  18 | 18 |   0 |   0 |-2.688054e+06 |-2.686767e+06 |   0.05%| unknown
  1.7s|     1 |     0 |  1267 |     - |   119M |   0 | 281 |1502 |1521 |  19 | 19 |   0 |   0 |-2.688054e+06 |-2.686767e+06 |   0.05%| unknown
  1.7s|     1 |     0 |  1285 |     - |   119M |   0 | 281 |1502 |1522 |  20 | 20 |   0 |   0 |-2.688054e+06 |-2.686767e+06 |   0.05%| unknown
d 1.9s|     1 |     0 |  2426 |     - |farkasdi|   0 | 281 |1502 |1522 |   0 | 22 |   0 |   0 |-2.688054e+06 |-2.687158e+06 |   0.03%| unknown
L 5.9s|     1 |     0 |  6380 |     - |    rens|   0 | 281 |1502 |1522 |  20 | 22 |   0 |   0 |-2.688054e+06 |-2.687223e+06 |   0.03%| unknown
  5.9s|     1 |     0 |  6380 |     - |   119M |   0 | 281 |1502 |1522 |  20 | 22 |   0 |   0 |-2.688054e+06 |-2.687223e+06 |   0.03%| unknown
  5.9s|     1 |     0 |  6380 |     - |   119M |   0 | 281 |1502 |1522 |  20 | 22 |   0 |   0 |-2.688054e+06 |-2.687223e+06 |   0.03%| unknown
  5.9s|     1 |     0 |  6385 |     - |   119M |   0 | 281 |1502 |1523 |  21 | 23 |   0 |   0 |-2.688054e+06 |-2.687223e+06 |   0.03%| unknown
 time | node  | left  |LP iter|LP it/n|mem/heur|mdpt |vars |cons |rows |cuts |sepa|confs|strbr|  dualbound   | primalbound  |  gap   | compl. 
  6.7s|     1 |     2 |  6385 |     - |   119M |   0 | 281 |1502 |1523 |  21 | 24 |   0 |  25 |-2.688013e+06 |-2.687223e+06 |   0.03%| unknown
(run 1, node 1) restarting after 10 global fixings of integer variables

(restart) converted 21 cuts from the global cut pool into linear constraints

presolving:
(round 1, fast)       10 del vars, 0 del conss, 0 add conss, 0 chg bounds, 0 chg sides, 1462 chg coeffs, 0 upgd conss, 0 impls, 0 clqs
   (6.7s) running MILP presolver
   (6.7s) MILP presolver found nothing
(round 2, exhaustive) 10 del vars, 0 del conss, 0 add conss, 0 chg bounds, 0 chg sides, 1462 chg coeffs, 11 upgd conss, 0 impls, 0 clqs
presolving (3 rounds: 3 fast, 2 medium, 2 exhaustive):
 10 deleted vars, 0 deleted constraints, 0 added constraints, 0 tightened bounds, 0 added holes, 0 changed sides, 1462 changed coefficients
 0 implications, 0 cliques
presolved problem has 271 variables (271 bin, 0 int, 0 impl, 0 cont) and 1523 constraints
     13 constraints of type <knapsack>
     10 constraints of type <linear>
   1500 constraints of type <logicor>
transformed objective value is always integral (scale: 0.02)
Presolving Time: 0.86
transformed 6/8 original solutions to the transformed problem space

 time | node  | left  |LP iter|LP it/n|mem/heur|mdpt |vars |cons |rows |cuts |sepa|confs|strbr|  dualbound   | primalbound  |  gap   | compl. 
  6.8s|     1 |     0 |  6890 |     - |   108M |   0 | 271 |1523 |1523 |   0 |  0 |   0 |  25 |-2.688013e+06 |-2.687223e+06 |   0.03%| unknown
  7.0s|     1 |     0 |  6953 |     - |   109M |   0 | 271 |1523 |1524 |   1 |  1 |   0 |  25 |-2.688013e+06 |-2.687223e+06 |   0.03%| unknown
  7.1s|     1 |     0 |  7002 |     - |   110M |   0 | 271 |1523 |1525 |   2 |  2 |   0 |  25 |-2.688013e+06 |-2.687223e+06 |   0.03%| unknown
  7.3s|     1 |     0 |  7020 |     - |   111M |   0 | 271 |1523 |1526 |   3 |  3 |   0 |  25 |-2.688013e+06 |-2.687223e+06 |   0.03%| unknown
  7.4s|     1 |     0 |  7071 |     - |   111M |   0 | 271 |1523 |1527 |   4 |  4 |   0 |  25 |-2.688013e+06 |-2.687223e+06 |   0.03%| unknown
  7.5s|     1 |     0 |  7112 |     - |   113M |   0 | 271 |1523 |1528 |   5 |  5 |   0 |  25 |-2.688013e+06 |-2.687223e+06 |   0.03%| unknown
  7.7s|     1 |     0 |  7131 |     - |   115M |   0 | 271 |1523 |1529 |   6 |  6 |   0 |  25 |-2.688013e+06 |-2.687223e+06 |   0.03%| unknown
  7.8s|     1 |     0 |  7175 |     - |   117M |   0 | 271 |1523 |1530 |   7 |  7 |   0 |  25 |-2.688013e+06 |-2.687223e+06 |   0.03%| unknown
  7.9s|     1 |     0 |  7204 |     - |   118M |   0 | 271 |1523 |1531 |   8 |  8 |   0 |  25 |-2.688013e+06 |-2.687223e+06 |   0.03%| unknown
  8.1s|     1 |     0 |  7269 |     - |   120M |   0 | 271 |1523 |1532 |   9 |  9 |   0 |  25 |-2.688013e+06 |-2.687223e+06 |   0.03%| unknown
  8.2s|     1 |     0 |  7313 |     - |   121M |   0 | 271 |1523 |1533 |  10 | 10 |   0 |  25 |-2.688013e+06 |-2.687223e+06 |   0.03%| unknown
  8.3s|     1 |     0 |  7335 |     - |   122M |   0 | 271 |1523 |1534 |  11 | 11 |   0 |  25 |-2.688013e+06 |-2.687223e+06 |   0.03%| unknown
  8.3s|     1 |     0 |  7357 |     - |   122M |   0 | 271 |1523 |1535 |  12 | 12 |   0 |  25 |-2.688013e+06 |-2.687223e+06 |   0.03%| unknown
  8.4s|     1 |     0 |  7435 |     - |   122M |   0 | 271 |1523 |1532 |  14 | 13 |   0 |  25 |-2.688013e+06 |-2.687223e+06 |   0.03%| unknown
  8.5s|     1 |     0 |  7472 |     - |   122M |   0 | 271 |1523 |1533 |  15 | 14 |   0 |  25 |-2.688013e+06 |-2.687223e+06 |   0.03%| unknown
 time | node  | left  |LP iter|LP it/n|mem/heur|mdpt |vars |cons |rows |cuts |sepa|confs|strbr|  dualbound   | primalbound  |  gap   | compl. 
  8.5s|     1 |     0 |  7500 |     - |   122M |   0 | 271 |1523 |1534 |  16 | 15 |   0 |  25 |-2.688013e+06 |-2.687223e+06 |   0.03%| unknown
  8.6s|     1 |     0 |  7506 |     - |   122M |   0 | 271 |1523 |1535 |  17 | 16 |   0 |  25 |-2.688013e+06 |-2.687223e+06 |   0.03%| unknown
  8.6s|     1 |     0 |  7540 |     - |   122M |   0 | 271 |1523 |1536 |  18 | 17 |   0 |  25 |-2.688013e+06 |-2.687223e+06 |   0.03%| unknown
  8.7s|     1 |     0 |  7564 |     - |   122M |   0 | 271 |1523 |1538 |  20 | 18 |   0 |  25 |-2.688013e+06 |-2.687223e+06 |   0.03%| unknown
  8.7s|     1 |     0 |  7588 |     - |   122M |   0 | 271 |1523 |1535 |  21 | 19 |   0 |  25 |-2.688013e+06 |-2.687223e+06 |   0.03%| unknown
  8.8s|     1 |     0 |  7605 |     - |   122M |   0 | 271 |1523 |1536 |  22 | 20 |   0 |  25 |-2.688013e+06 |-2.687223e+06 |   0.03%| unknown
L12.7s|     1 |     0 |  9117 |     - |    rens|   0 | 271 |1524 |1536 |  22 | 22 |   3 |  25 |-2.688013e+06 |-2.687316e+06 |   0.03%| unknown
 12.7s|     1 |     0 |  9117 |     - |   123M |   0 | 271 |1524 |1536 |  22 | 22 |   3 |  25 |-2.688013e+06 |-2.687316e+06 |   0.03%| unknown
 12.7s|     1 |     0 |  9117 |     - |   123M |   0 | 271 |1524 |1536 |  22 | 22 |   3 |  25 |-2.688013e+06 |-2.687316e+06 |   0.03%| unknown
 13.3s|     1 |     2 |  9117 |     - |   123M |   0 | 271 |1524 |1536 |  22 | 24 |   3 |  44 |-2.688011e+06 |-2.687316e+06 |   0.03%| unknown
 17.8s|   100 |    29 | 17835 | 153.2 |   129M |  12 | 271 |1634 |1527 |  57 |  0 | 117 | 323 |-2.687855e+06 |-2.687316e+06 |   0.02%|  18.48%
*17.8s|   102 |    27 | 17922 | 151.1 |strongbr|  12 | 271 |1634 |1527 |  57 |  1 | 117 | 324 |-2.687855e+06 |-2.687368e+06 |   0.02%|  18.50%
 19.4s|   200 |    49 | 24190 | 108.4 |   134M |  16 | 271 |1682 |1520 |  73 |  1 | 165 | 383 |-2.687806e+06 |-2.687368e+06 |   0.02%|  24.38%
 21.0s|   300 |    57 | 29815 |  91.0 |   141M |  16 | 271 |1706 |1520 | 100 |  0 | 189 | 417 |-2.687782e+06 |-2.687368e+06 |   0.02%|  30.08%
 24.1s|   400 |    99 | 40867 |  95.9 |   144M |  16 | 271 |1768 |1520 | 154 |  1 | 251 | 468 |-2.687719e+06 |-2.687368e+06 |   0.01%|  37.28%
 time | node  | left  |LP iter|LP it/n|mem/heur|mdpt |vars |cons |rows |cuts |sepa|confs|strbr|  dualbound   | primalbound  |  gap   | compl. 
 26.0s|   500 |   133 | 50086 |  95.2 |   146M |  16 | 271 |1795 |1521 | 184 |  1 | 278 | 487 |-2.687684e+06 |-2.687368e+06 |   0.01%|  42.13%
 27.5s|   600 |   145 | 57398 |  91.5 |   146M |  19 | 271 |1829 |1522 | 204 |  0 | 313 | 511 |-2.687658e+06 |-2.687368e+06 |   0.01%|  46.59%
 29.7s|   700 |   155 | 65687 |  90.3 |   147M |  19 | 271 |1865 |1525 | 254 |  0 | 351 | 536 |-2.687634e+06 |-2.687368e+06 |   0.01%|  52.38%
 31.7s|   800 |   171 | 72919 |  88.0 |   148M |  19 | 271 |1890 |1528 | 308 |  1 | 376 | 552 |-2.687608e+06 |-2.687368e+06 |   0.01%|  57.80%
 32.8s|   900 |   159 | 77726 |  83.6 |   148M |  19 | 271 |1899 |1523 | 324 |  0 | 387 | 559 |-2.687590e+06 |-2.687368e+06 |   0.01%|  63.48%
 34.3s|  1000 |   143 | 83125 |  80.6 |   148M |  19 | 271 |1924 |1520 | 360 |  1 | 413 | 586 |-2.687546e+06 |-2.687368e+06 |   0.01%|  70.08%
 35.4s|  1100 |   127 | 87461 |  77.2 |   148M |  19 | 271 |1932 |1521 | 385 |  2 | 423 | 596 |-2.687518e+06 |-2.687368e+06 |   0.01%|  77.47%
 36.3s|  1200 |    99 | 91973 |  74.6 |   148M |  19 | 271 |1935 |1522 | 402 |  0 | 429 | 600 |-2.687516e+06 |-2.687368e+06 |   0.01%|  83.62%
 37.2s|  1300 |    61 | 95960 |  71.9 |   148M |  19 | 271 |1935 |1528 | 413 |  0 | 435 | 608 |-2.687473e+06 |-2.687368e+06 |   0.00%|  89.88%
 38.0s|  1400 |     1 | 99068 |  69.0 |   148M |  19 | 271 |1939 |1544 | 431 |  0 | 446 | 618 |-2.687376e+06 |-2.687368e+06 |   0.00%|  99.66%

SCIP Status        : problem is solved [optimal solution found]
Solving Time (sec) : 38.03
Solving Nodes      : 1401 (total of 1402 nodes in 2 runs)
Primal Bound       : -2.68736817999999e+06 (287 solutions)
Dual Bound         : -2.68736817999999e+06
Gap                : 0.00 %
Solve Status: optimal
Solve Time: 38.03 seconds
